c graph colorability of graph:
c .
c
c Generated with `cnfgen`
c (C) 2012-2019 Massimo Lauria <massimo.lauria@uniroma1.it>
c https://massimolauria.net/cnfgen
c
c COMMAND LINE: cnfgen --seed 1 -o ./kcolor/kcolor.grid10.s1.k3.cnf kcolor --grid 10 10 --savegraph ./kcolor/kcolor.grid10.s1.graph --graphformat dot 3
c
p cnf 300 940
1 2 3 0
-1 -2 0
-1 -3 0
-2 -3 0
4 5 6 0
-4 -5 0
-4 -6 0
-5 -6 0
7 8 9 0
-7 -8 0
-7 -9 0
-8 -9 0
10 11 12 0
-10 -11 0
-10 -12 0
-11 -12 0
13 14 15 0
-13 -14 0
-13 -15 0
-14 -15 0
16 17 18 0
-16 -17 0
-16 -18 0
-17 -18 0
19 20 21 0
-19 -20 0
-19 -21 0
-20 -21 0
22 23 24 0
-22 -23 0
-22 -24 0
-23 -24 0
25 26 27 0
-25 -26 0
-25 -27 0
-26 -27 0
28 29 30 0
-28 -29 0
-28 -30 0
-29 -30 0
31 32 33 0
-31 -32 0
-31 -33 0
-32 -33 0
34 35 36 0
-34 -35 0
-34 -36 0
-35 -36 0
37 38 39 0
-37 -38 0
-37 -39 0
-38 -39 0
40 41 42 0
-40 -41 0
-40 -42 0
-41 -42 0
43 44 45 0
-43 -44 0
-43 -45 0
-44 -45 0
46 47 48 0
-46 -47 0
-46 -48 0
-47 -48 0
49 50 51 0
-49 -50 0
-49 -51 0
-50 -51 0
52 53 54 0
-52 -53 0
-52 -54 0
-53 -54 0
55 56 57 0
-55 -56 0
-55 -57 0
-56 -57 0
58 59 60 0
-58 -59 0
-58 -60 0
-59 -60 0
61 62 63 0
-61 -62 0
-61 -63 0
-62 -63 0
64 65 66 0
-64 -65 0
-64 -66 0
-65 -66 0
67 68 69 0
-67 -68 0
-67 -69 0
-68 -69 0
70 71 72 0
-70 -71 0
-70 -72 0
-71 -72 0
73 74 75 0
-73 -74 0
-73 -75 0
-74 -75 0
76 77 78 0
-76 -77 0
-76 -78 0
-77 -78 0
79 80 81 0
-79 -80 0
-79 -81 0
-80 -81 0
82 83 84 0
-82 -83 0
-82 -84 0
-83 -84 0
85 86 87 0
-85 -86 0
-85 -87 0
-86 -87 0
88 89 90 0
-88 -89 0
-88 -90 0
-89 -90 0
91 92 93 0
-91 -92 0
-91 -93 0
-92 -93 0
94 95 96 0
-94 -95 0
-94 -96 0
-95 -96 0
97 98 99 0
-97 -98 0
-97 -99 0
-98 -99 0
100 101 102 0
-100 -101 0
-100 -102 0
-101 -102 0
103 104 105 0
-103 -104 0
-103 -105 0
-104 -105 0
106 107 108 0
-106 -107 0
-106 -108 0
-107 -108 0
109 110 111 0
-109 -110 0
-109 -111 0
-110 -111 0
112 113 114 0
-112 -113 0
-112 -114 0
-113 -114 0
115 116 117 0
-115 -116 0
-115 -117 0
-116 -117 0
118 119 120 0
-118 -119 0
-118 -120 0
-119 -120 0
121 122 123 0
-121 -122 0
-121 -123 0
-122 -123 0
124 125 126 0
-124 -125 0
-124 -126 0
-125 -126 0
127 128 129 0
-127 -128 0
-127 -129 0
-128 -129 0
130 131 132 0
-130 -131 0
-130 -132 0
-131 -132 0
133 134 135 0
-133 -134 0
-133 -135 0
-134 -135 0
136 137 138 0
-136 -137 0
-136 -138 0
-137 -138 0
139 140 141 0
-139 -140 0
-139 -141 0
-140 -141 0
142 143 144 0
-142 -143 0
-142 -144 0
-143 -144 0
145 146 147 0
-145 -146 0
-145 -147 0
-146 -147 0
148 149 150 0
-148 -149 0
-148 -150 0
-149 -150 0
151 152 153 0
-151 -152 0
-151 -153 0
-152 -153 0
154 155 156 0
-154 -155 0
-154 -156 0
-155 -156 0
157 158 159 0
-157 -158 0
-157 -159 0
-158 -159 0
160 161 162 0
-160 -161 0
-160 -162 0
-161 -162 0
163 164 165 0
-163 -164 0
-163 -165 0
-164 -165 0
166 167 168 0
-166 -167 0
-166 -168 0
-167 -168 0
169 170 171 0
-169 -170 0
-169 -171 0
-170 -171 0
172 173 174 0
-172 -173 0
-172 -174 0
-173 -174 0
175 176 177 0
-175 -176 0
-175 -177 0
-176 -177 0
178 179 180 0
-178 -179 0
-178 -180 0
-179 -180 0
181 182 183 0
-181 -182 0
-181 -183 0
-182 -183 0
184 185 186 0
-184 -185 0
-184 -186 0
-185 -186 0
187 188 189 0
-187 -188 0
-187 -189 0
-188 -189 0
190 191 192 0
-190 -191 0
-190 -192 0
-191 -192 0
193 194 195 0
-193 -194 0
-193 -195 0
-194 -195 0
196 197 198 0
-196 -197 0
-196 -198 0
-197 -198 0
199 200 201 0
-199 -200 0
-199 -201 0
-200 -201 0
202 203 204 0
-202 -203 0
-202 -204 0
-203 -204 0
205 206 207 0
-205 -206 0
-205 -207 0
-206 -207 0
208 209 210 0
-208 -209 0
-208 -210 0
-209 -210 0
211 212 213 0
-211 -212 0
-211 -213 0
-212 -213 0
214 215 216 0
-214 -215 0
-214 -216 0
-215 -216 0
217 218 219 0
-217 -218 0
-217 -219 0
-218 -219 0
220 221 222 0
-220 -221 0
-220 -222 0
-221 -222 0
223 224 225 0
-223 -224 0
-223 -225 0
-224 -225 0
226 227 228 0
-226 -227 0
-226 -228 0
-227 -228 0
229 230 231 0
-229 -230 0
-229 -231 0
-230 -231 0
232 233 234 0
-232 -233 0
-232 -234 0
-233 -234 0
235 236 237 0
-235 -236 0
-235 -237 0
-236 -237 0
238 239 240 0
-238 -239 0
-238 -240 0
-239 -240 0
241 242 243 0
-241 -242 0
-241 -243 0
-242 -243 0
244 245 246 0
-244 -245 0
-244 -246 0
-245 -246 0
247 248 249 0
-247 -248 0
-247 -249 0
-248 -249 0
250 251 252 0
-250 -251 0
-250 -252 0
-251 -252 0
253 254 255 0
-253 -254 0
-253 -255 0
-254 -255 0
256 257 258 0
-256 -257 0
-256 -258 0
-257 -258 0
259 260 261 0
-259 -260 0
-259 -261 0
-260 -261 0
262 263 264 0
-262 -263 0
-262 -264 0
-263 -264 0
265 266 267 0
-265 -266 0
-265 -267 0
-266 -267 0
268 269 270 0
-268 -269 0
-268 -270 0
-269 -270 0
271 272 273 0
-271 -272 0
-271 -273 0
-272 -273 0
274 275 276 0
-274 -275 0
-274 -276 0
-275 -276 0
277 278 279 0
-277 -278 0
-277 -279 0
-278 -279 0
280 281 282 0
-280 -281 0
-280 -282 0
-281 -282 0
283 284 285 0
-283 -284 0
-283 -285 0
-284 -285 0
286 287 288 0
-286 -287 0
-286 -288 0
-287 -288 0
289 290 291 0
-289 -290 0
-289 -291 0
-290 -291 0
292 293 294 0
-292 -293 0
-292 -294 0
-293 -294 0
295 296 297 0
-295 -296 0
-295 -297 0
-296 -297 0
298 299 300 0
-298 -299 0
-298 -300 0
-299 -300 0
-1 -4 0
-2 -5 0
-3 -6 0
-1 -31 0
-2 -32 0
-3 -33 0
-4 -7 0
-5 -8 0
-6 -9 0
-4 -34 0
-5 -35 0
-6 -36 0
-7 -10 0
-8 -11 0
-9 -12 0
-7 -37 0
-8 -38 0
-9 -39 0
-10 -13 0
-11 -14 0
-12 -15 0
-10 -40 0
-11 -41 0
-12 -42 0
-13 -16 0
-14 -17 0
-15 -18 0
-13 -43 0
-14 -44 0
-15 -45 0
-16 -19 0
-17 -20 0
-18 -21 0
-16 -46 0
-17 -47 0
-18 -48 0
-19 -22 0
-20 -23 0
-21 -24 0
-19 -49 0
-20 -50 0
-21 -51 0
-22 -25 0
-23 -26 0
-24 -27 0
-22 -52 0
-23 -53 0
-24 -54 0
-25 -28 0
-26 -29 0
-27 -30 0
-25 -55 0
-26 -56 0
-27 -57 0
-28 -58 0
-29 -59 0
-30 -60 0
-31 -34 0
-32 -35 0
-33 -36 0
-31 -61 0
-32 -62 0
-33 -63 0
-34 -37 0
-35 -38 0
-36 -39 0
-34 -64 0
-35 -65 0
-36 -66 0
-37 -40 0
-38 -41 0
-39 -42 0
-37 -67 0
-38 -68 0
-39 -69 0
-40 -43 0
-41 -44 0
-42 -45 0
-40 -70 0
-41 -71 0
-42 -72 0
-43 -46 0
-44 -47 0
-45 -48 0
-43 -73 0
-44 -74 0
-45 -75 0
-46 -49 0
-47 -50 0
-48 -51 0
-46 -76 0
-47 -77 0
-48 -78 0
-49 -52 0
-50 -53 0
-51 -54 0
-49 -79 0
-50 -80 0
-51 -81 0
-52 -55 0
-53 -56 0
-54 -57 0
-52 -82 0
-53 -83 0
-54 -84 0
-55 -58 0
-56 -59 0
-57 -60 0
-55 -85 0
-56 -86 0
-57 -87 0
-58 -88 0
-59 -89 0
-60 -90 0
-61 -64 0
-62 -65 0
-63 -66 0
-61 -91 0
-62 -92 0
-63 -93 0
-64 -67 0
-65 -68 0
-66 -69 0
-64 -94 0
-65 -95 0
-66 -96 0
-67 -70 0
-68 -71 0
-69 -72 0
-67 -97 0
-68 -98 0
-69 -99 0
-70 -73 0
-71 -74 0
-72 -75 0
-70 -100 0
-71 -101 0
-72 -102 0
-73 -76 0
-74 -77 0
-75 -78 0
-73 -103 0
-74 -104 0
-75 -105 0
-76 -79 0
-77 -80 0
-78 -81 0
-76 -106 0
-77 -107 0
-78 -108 0
-79 -82 0
-80 -83 0
-81 -84 0
-79 -109 0
-80 -110 0
-81 -111 0
-82 -85 0
-83 -86 0
-84 -87 0
-82 -112 0
-83 -113 0
-84 -114 0
-85 -88 0
-86 -89 0
-87 -90 0
-85 -115 0
-86 -116 0
-87 -117 0
-88 -118 0
-89 -119 0
-90 -120 0
-91 -94 0
-92 -95 0
-93 -96 0
-91 -121 0
-92 -122 0
-93 -123 0
-94 -97 0
-95 -98 0
-96 -99 0
-94 -124 0
-95 -125 0
-96 -126 0
-97 -100 0
-98 -101 0
-99 -102 0
-97 -127 0
-98 -128 0
-99 -129 0
-100 -103 0
-101 -104 0
-102 -105 0
-100 -130 0
-101 -131 0
-102 -132 0
-103 -106 0
-104 -107 0
-105 -108 0
-103 -133 0
-104 -134 0
-105 -135 0
-106 -109 0
-107 -110 0
-108 -111 0
-106 -136 0
-107 -137 0
-108 -138 0
-109 -112 0
-110 -113 0
-111 -114 0
-109 -139 0
-110 -140 0
-111 -141 0
-112 -115 0
-113 -116 0
-114 -117 0
-112 -142 0
-113 -143 0
-114 -144 0
-115 -118 0
-116 -119 0
-117 -120 0
-115 -145 0
-116 -146 0
-117 -147 0
-118 -148 0
-119 -149 0
-120 -150 0
-121 -124 0
-122 -125 0
-123 -126 0
-121 -151 0
-122 -152 0
-123 -153 0
-124 -127 0
-125 -128 0
-126 -129 0
-124 -154 0
-125 -155 0
-126 -156 0
-127 -130 0
-128 -131 0
-129 -132 0
-127 -157 0
-128 -158 0
-129 -159 0
-130 -133 0
-131 -134 0
-132 -135 0
-130 -160 0
-131 -161 0
-132 -162 0
-133 -136 0
-134 -137 0
-135 -138 0
-133 -163 0
-134 -164 0
-135 -165 0
-136 -139 0
-137 -140 0
-138 -141 0
-136 -166 0
-137 -167 0
-138 -168 0
-139 -142 0
-140 -143 0
-141 -144 0
-139 -169 0
-140 -170 0
-141 -171 0
-142 -145 0
-143 -146 0
-144 -147 0
-142 -172 0
-143 -173 0
-144 -174 0
-145 -148 0
-146 -149 0
-147 -150 0
-145 -175 0
-146 -176 0
-147 -177 0
-148 -178 0
-149 -179 0
-150 -180 0
-151 -154 0
-152 -155 0
-153 -156 0
-151 -181 0
-152 -182 0
-153 -183 0
-154 -157 0
-155 -158 0
-156 -159 0
-154 -184 0
-155 -185 0
-156 -186 0
-157 -160 0
-158 -161 0
-159 -162 0
-157 -187 0
-158 -188 0
-159 -189 0
-160 -163 0
-161 -164 0
-162 -165 0
-160 -190 0
-161 -191 0
-162 -192 0
-163 -166 0
-164 -167 0
-165 -168 0
-163 -193 0
-164 -194 0
-165 -195 0
-166 -169 0
-167 -170 0
-168 -171 0
-166 -196 0
-167 -197 0
-168 -198 0
-169 -172 0
-170 -173 0
-171 -174 0
-169 -199 0
-170 -200 0
-171 -201 0
-172 -175 0
-173 -176 0
-174 -177 0
-172 -202 0
-173 -203 0
-174 -204 0
-175 -178 0
-176 -179 0
-177 -180 0
-175 -205 0
-176 -206 0
-177 -207 0
-178 -208 0
-179 -209 0
-180 -210 0
-181 -184 0
-182 -185 0
-183 -186 0
-181 -211 0
-182 -212 0
-183 -213 0
-184 -187 0
-185 -188 0
-186 -189 0
-184 -214 0
-185 -215 0
-186 -216 0
-187 -190 0
-188 -191 0
-189 -192 0
-187 -217 0
-188 -218 0
-189 -219 0
-190 -193 0
-191 -194 0
-192 -195 0
-190 -220 0
-191 -221 0
-192 -222 0
-193 -196 0
-194 -197 0
-195 -198 0
-193 -223 0
-194 -224 0
-195 -225 0
-196 -199 0
-197 -200 0
-198 -201 0
-196 -226 0
-197 -227 0
-198 -228 0
-199 -202 0
-200 -203 0
-201 -204 0
-199 -229 0
-200 -230 0
-201 -231 0
-202 -205 0
-203 -206 0
-204 -207 0
-202 -232 0
-203 -233 0
-204 -234 0
-205 -208 0
-206 -209 0
-207 -210 0
-205 -235 0
-206 -236 0
-207 -237 0
-208 -238 0
-209 -239 0
-210 -240 0
-211 -214 0
-212 -215 0
-213 -216 0
-211 -241 0
-212 -242 0
-213 -243 0
-214 -217 0
-215 -218 0
-216 -219 0
-214 -244 0
-215 -245 0
-216 -246 0
-217 -220 0
-218 -221 0
-219 -222 0
-217 -247 0
-218 -248 0
-219 -249 0
-220 -223 0
-221 -224 0
-222 -225 0
-220 -250 0
-221 -251 0
-222 -252 0
-223 -226 0
-224 -227 0
-225 -228 0
-223 -253 0
-224 -254 0
-225 -255 0
-226 -229 0
-227 -230 0
-228 -231 0
-226 -256 0
-227 -257 0
-228 -258 0
-229 -232 0
-230 -233 0
-231 -234 0
-229 -259 0
-230 -260 0
-231 -261 0
-232 -235 0
-233 -236 0
-234 -237 0
-232 -262 0
-233 -263 0
-234 -264 0
-235 -238 0
-236 -239 0
-237 -240 0
-235 -265 0
-236 -266 0
-237 -267 0
-238 -268 0
-239 -269 0
-240 -270 0
-241 -244 0
-242 -245 0
-243 -246 0
-241 -271 0
-242 -272 0
-243 -273 0
-244 -247 0
-245 -248 0
-246 -249 0
-244 -274 0
-245 -275 0
-246 -276 0
-247 -250 0
-248 -251 0
-249 -252 0
-247 -277 0
-248 -278 0
-249 -279 0
-250 -253 0
-251 -254 0
-252 -255 0
-250 -280 0
-251 -281 0
-252 -282 0
-253 -256 0
-254 -257 0
-255 -258 0
-253 -283 0
-254 -284 0
-255 -285 0
-256 -259 0
-257 -260 0
-258 -261 0
-256 -286 0
-257 -287 0
-258 -288 0
-259 -262 0
-260 -263 0
-261 -264 0
-259 -289 0
-260 -290 0
-261 -291 0
-262 -265 0
-263 -266 0
-264 -267 0
-262 -292 0
-263 -293 0
-264 -294 0
-265 -268 0
-266 -269 0
-267 -270 0
-265 -295 0
-266 -296 0
-267 -297 0
-268 -298 0
-269 -299 0
-270 -300 0
-271 -274 0
-272 -275 0
-273 -276 0
-274 -277 0
-275 -278 0
-276 -279 0
-277 -280 0
-278 -281 0
-279 -282 0
-280 -283 0
-281 -284 0
-282 -285 0
-283 -286 0
-284 -287 0
-285 -288 0
-286 -289 0
-287 -290 0
-288 -291 0
-289 -292 0
-290 -293 0
-291 -294 0
-292 -295 0
-293 -296 0
-294 -297 0
-295 -298 0
-296 -299 0
-297 -300 0
